







































































































65 17 25 55 32 3 
51 47 21 48 44 59 27 
43 56 60 15 29 36 69 
34 7 12 72 18 68 70 
2 33 57 50 63 45 4 58 
76 38 24 37 26 1 13 
6 19 20 74 52 61 11 
0 64 46 75 73 28 71 
41 5 49 54 42 66 30 
14 53 67 31 62 16 35 39 
9 22 40 10 23 8 
